datasets/2-dimensional/CL_09_25_02.vbp
2
943 968 
25
125 315 30
355 117 72
321 137 4
188 143 88
224 301 54
195 278 64
269 139 90
110 353 26
388 285 94
367 303 28
314 272 72
297 160 49
182 334 54
236 359 19
225 203 28
315 232 61
175 313 84
169 113 23
166 298 67
131 135 53
132 191 54
334 232 16
105 125 9
111 136 54
220 333 77
