datasets/2-dimensional/CL_09_25_02.txt
943 968 
0 30 125 315 
1 72 355 117 
2 4 321 137 
3 88 188 143 
4 54 224 301 
5 64 195 278 
6 90 269 139 
7 26 110 353 
8 94 388 285 
9 28 367 303 
10 72 314 272 
11 49 297 160 
12 54 182 334 
13 19 236 359 
14 28 225 203 
15 61 315 232 
16 84 175 313 
17 23 169 113 
18 67 166 298 
19 53 131 135 
20 54 132 191 
21 16 334 232 
22 9 105 125 
23 54 111 136 
24 77 220 333 
